xclingo version 2.0b16
Reading from /bin/text2ALM/Master/LogicPrograms/countingA/countingANarrative1.tp.lp /usr/bin/text2ALM/query1.lp trace-rule.lp
*** ERROR: (xclingo, explainer program) too many messages.
xclingo version 2.0b16
Reading from /bin/text2ALM/Master/LogicPrograms/countingA/countingANarrative2.tp.lp /usr/bin/text2ALM/query2.lp trace-rule.lp
*** ERROR: (xclingo, explainer program) too many messages.
xclingo version 2.0b16
Reading from /bin/text2ALM/Master/LogicPrograms/countingA/countingANarrative3.tp.lp /usr/bin/text2ALM/query3.lp trace-rule.lp
*** ERROR: (xclingo, explainer program) too many messages.
xclingo version 2.0b16
Reading from /bin/text2ALM/Master/LogicPrograms/countingA/countingANarrative4.tp.lp /usr/bin/text2ALM/query4.lp trace-rule.lp
*** ERROR: (xclingo, explainer program) too many messages.
xclingo version 2.0b16
Reading from /bin/text2ALM/Master/LogicPrograms/countingA/countingANarrative5.tp.lp /usr/bin/text2ALM/query5.lp trace-rule.lp
*** ERROR: (xclingo, explainer program) too many messages.
